submitit INFO (2023-04-30 19:21:44,066) - Starting with JobEnvironment(job_id=27535, hostname=cpunode24, local_rank=1(5), node=0(1), global_rank=1(5))
submitit INFO (2023-04-30 19:21:44,066) - Loading pickle: /h/30/pashootan/Matrix-Mult-CP/src/../logs/2x2x2_6_Apr30_19:21:42/27535_submitted.pkl
 ! --------------------------------------------------- CP Optimizer 22.1.1.0 --
 ! Satisfiability problem - 72 variables, 237 constraints
 ! TimeLimit            = 7200
 ! Workers              = 8
 ! LogPeriod            = 10000000
 ! RandomSeed           = 9277
 ! Initial process time : 0.02s (0.02s extraction + 0.00s propagation)
 !  . Log search space  : 107.1 (before), 107.1 (after)
 !  . Memory usage      : 575.6 kB (before), 575.6 kB (after)
 ! Using parallel search with 8 workers.
 ! ----------------------------------------------------------------------------
 !               Branches  Non-fixed    W       Branch decision
                   10000k          6    5        -1 != V5_0
                   10000k          6    2         1  = V1_0
                   10000k          6    1         0  = U1_2
                   10000k          6    6   F     0  = V3_3
                   10000k          6    4         1  = W3_2
                   10000k          6    7   F     0  = V2_1
                   10000k          8    3   F     0 != V4_0
                   10000k          6    8   F        -
                   20000k          6    5         1 != W4_1
                   20000k          6    2        -1 != W0_1
                   20000k          6    1         1 != V5_1
                   20000k          6    4   F     0 != U0_1
                   20000k          6    6   F    -1  = W0_1
                   20000k          6    7   F    -1  = V2_2
                   20000k          6    8            -
                   20000k          9    3        -1 != V5_0
                   30000k          6    5        -1  = V0_2
                   30000k          8    6   F     0 != V3_1
                   30000k          6    2         1 != U1_2
                   30000k          7    4        -1  = V1_2
 ! Time = 395.84s, Average fail depth = 18, Memory usage = 140.8 MB
 !               Branches  Non-fixed    W       Branch decision
                   30000k          6    1   F     1  = V0_0
                   30000k          7    7   F     1  = V3_2
                   30000k          9    3   F    -1 != V0_2
                   30000k          6    8   F     1  = V5_3
                   40000k          7    5   F    -1  = W4_3
                   40000k          6    4         0  = W0_1
                   40000k          7    2   F    -1 != V5_1
                   40000k          7    6         1 != W0_3
                   40000k          7    1   F    -1 != W0_1
                   40000k          8    7        -1 != U0_1
                   40000k          8    3        -1  = V3_2
                   40000k          6    8   F     0 != U3_3
 ! ----------------------------------------------------------------------------
 ! Search completed, model has no solution.
 ! ----------------------------------------------------------------------------
 ! Number of branches     : 325653262
 ! Number of fails        : 160610015
 ! Total memory usage     : 195.2 MB (195.1 MB CP Optimizer + 0.0 MB Concert)
 ! Time spent in solve    : 544.30s (544.29s engine + 0.02s extraction)
 ! Search speed (br. / s) : 598319.4
 ! ----------------------------------------------------------------------------
Infeasible
Saving stats to: /h/30/pashootan/Matrix-Mult-CP/logs/2x2x2_6_Apr30_19:21:42/27535_1_stats.csv
submitit INFO (2023-04-30 19:30:48,942) - Job completed successfully
